5613
1 0 0 1 0 1 1 0 1 0 1 0 0 1 1 0 0 1 0 1
0 0 0 0 0 0 0 0 0 3 3 3 3 3 3 5 5 5 5 5 5 5 5 5 6 6 6 6 6 6 6 8 8 8 8 8 8 8 8 8 6 5 10 10 10 10 10 10 13 13 13 13 13 13 13 14 14 13 14 13 0 14 14 14 14 17 17 17 17 17 17 17 17 19 19 19 19 19 19 19
